
Gurobi 12.0.1 (win64) logging started Fri Nov 21 22:19:21 2025

Set parameter LogFile to value "data\dblrp\grb_log_ef_s100_ts0_f10_c10_r2.0_iss1_bt1_nsp1_nse5_sd7.log"
Set parameter NodefileStart to value 0.5
Set parameter NodefileDir to value "node_files\s100_ts0"
Set parameter MIPGap to value 0.0001
Set parameter TimeLimit to value 3600
Set parameter Threads to value 1
Gurobi Optimizer version 12.0.1 build v12.0.1rc0 (win64 - Windows 11.0 (26100.2))

CPU model: Intel(R) Core(TM) i9-14900K, instruction set [SSE2|AVX|AVX2]
Thread count: 24 physical cores, 32 logical processors, using up to 1 threads

Non-default parameters:
TimeLimit  3600
NodefileStart  0.5
Threads  1

Optimize a model with 75677000 rows, 25309010 columns and 212875000 nonzeros
Model fingerprint: 0xc366f617
Variable types: 0 continuous, 25309010 integer (25200010 binary)
Coefficient statistics:
  Matrix range     [1e+00, 7e+01]
  Objective range  [1e-01, 1e+01]
  Bounds range     [1e+00, 4e+01]
  RHS range        [1e+00, 7e+01]
Presolve removed 0 rows and 0 columns (presolve time = 7s)...
Presolve removed 1400000 rows and 0 columns (presolve time = 10s)...
Presolve removed 75243141 rows and 40000 columns (presolve time = 19s)...
Presolve removed 75243141 rows and 40000 columns (presolve time = 21s)...
Presolve removed 75373547 rows and 24923378 columns (presolve time = 25s)...
Presolve removed 75430540 rows and 24943940 columns
Presolve time: 27.95s
Presolved: 246460 rows, 365070 columns, 1796472 nonzeros
Variable types: 0 continuous, 365070 integer (309022 binary)
Found heuristic solution: objective -100.0000000
Performing another presolve...
Presolve removed 197732 rows and 91641 columns (presolve time = 5s)...
Presolve removed 206585 rows and 123192 columns
Presolve time: 9.74s

Root simplex log...

Iteration    Objective       Primal Inf.    Dual Inf.      Time
       0    9.1623733e+03   1.162649e+05   0.000000e+00     72s
  102313    1.8141685e+02   3.470188e+04   0.000000e+00     75s
  127139    1.7751790e+02   0.000000e+00   0.000000e+00     80s

Root relaxation: objective 1.775179e+02, 127139 iterations, 8.49 seconds (19.08 work units)
Total elapsed time = 79.84s (DegenMoves)
Total elapsed time = 80.57s (DegenMoves)

    Nodes    |    Current Node    |     Objective Bounds      |     Work
 Expl Unexpl |  Obj  Depth IntInf | Incumbent    BestBd   Gap | It/Node Time

     0     0  177.51790    0 12170 -100.00000  177.51790   278%     -   83s
     0     0  175.43161    0 12850 -100.00000  175.43161   275%     -   88s
     0     0  173.71338    0 12456 -100.00000  173.71338   274%     -   90s
     0     0  173.63537    0 12379 -100.00000  173.63537   274%     -   90s
     0     0  173.61704    0 12378 -100.00000  173.61704   274%     -   91s
H    0     0                      -0.0000000  173.61704      -     -   92s
H    0     0                       6.8025928  173.61704  2452%     -   93s
H    0     0                      23.9908549  173.61704   624%     -   94s
H    0     0                      77.2605947  173.61704   125%     -   95s
H    0     0                     126.2574342  173.61704  37.5%     -   97s
H    0     0                     135.6108216  173.61704  28.0%     -   98s
H    0     0                     136.2937287  173.61704  27.4%     -   99s
H    0     0                     136.4864433  173.61704  27.2%     -  100s
H    0     0                     137.1470531  173.61704  26.6%     -  101s
H    0     0                     140.9502103  173.61704  23.2%     -  102s
     0     0  173.34280    0 12902  140.95021  173.34280  23.0%     -  106s
     0     0  173.31729    0 12869  140.95021  173.31729  23.0%     -  106s
     0     0  173.31729    0 12849  140.95021  173.31729  23.0%     -  106s
H    0     0                     146.7078641  173.30080  18.1%     -  108s
H    0     0                     147.9932071  173.30080  17.1%     -  109s
H    0     0                     148.2558161  173.30080  16.9%     -  110s
H    0     0                     149.0260505  173.30080  16.3%     -  111s
H    0     0                     149.1106101  173.30080  16.2%     -  113s
H    0     0                     149.2867983  173.30080  16.1%     -  114s
H    0     0                     149.3917782  173.30080  16.0%     -  115s
H    0     0                     149.6017379  173.30080  15.8%     -  116s
     0     0  172.90928    0 12933  149.60174  172.90928  15.6%     -  117s
     0     0  172.90578    0 12889  149.60174  172.90578  15.6%     -  117s
     0     0  172.90578    0 12892  149.60174  172.90578  15.6%     -  117s
     0     0  172.72139    0 13276  149.60174  172.72139  15.5%     -  121s
     0     0  172.71815    0 13282  149.60174  172.71815  15.5%     -  121s
     0     0  172.71806    0 13271  149.60174  172.71806  15.5%     -  121s
H    0     0                     153.5195927  172.71806  12.5%     -  123s
H    0     0                     153.8149973  172.71806  12.3%     -  124s
     0     0  172.50803    0 13328  153.81500  172.50803  12.2%     -  125s
     0     0  172.50803    0 13308  153.81500  172.50803  12.2%     -  125s
     0     0  172.50223    0 13320  153.81500  172.50223  12.1%     -  125s
     0     0  172.50223    0 13329  153.81500  172.50223  12.1%     -  125s
     0     0  172.29926    0 13744  153.81500  172.29926  12.0%     -  129s
     0     0  172.29690    0 13732  153.81500  172.29690  12.0%     -  129s
     0     0  172.29686    0 13707  153.81500  172.29686  12.0%     -  129s
H    0     0                     154.6181447  172.29686  11.4%     -  131s
H    0     0                     154.8071301  172.29686  11.3%     -  132s
H    0     0                     155.5980377  172.29686  10.7%     -  133s
H    0     0                     155.8983439  172.29686  10.5%     -  134s
H    0     0                     156.2934499  172.29686  10.2%     -  135s
     0     0  172.29022    0 13778  156.29345  172.29022  10.2%     -  135s
     0     0  172.29017    0 13770  156.29345  172.29017  10.2%     -  135s
     0     0  172.28992    0 13786  156.29345  172.28992  10.2%     -  135s
     0     0  172.28991    0 13773  156.29345  172.28991  10.2%     -  135s
     0     0  172.20349    0 14117  156.29345  172.20349  10.2%     -  138s
     0     0  172.20307    0 14081  156.29345  172.20307  10.2%     -  139s
H    0     0                     158.1533689  172.20307  8.88%     -  140s
H    0     0                     158.2086248  172.20307  8.85%     -  141s
H    0     0                     158.5248426  172.20307  8.63%     -  143s
H    0     0                     158.5503360  172.20307  8.61%     -  144s
H    0     0                     158.7061040  172.20307  8.50%     -  145s
H    0     0                     158.8110838  172.20307  8.43%     -  146s
     0     0  172.19440    0 14104  158.81108  172.19440  8.43%     -  146s
     0     0  172.19440    0 14106  158.81108  172.19440  8.43%     -  146s
     0     0  172.19440    0 14105  158.81108  172.19440  8.43%     -  146s
     0     0  172.19413    0 14170  158.81108  172.19413  8.43%     -  146s
     0     0  172.19413    0 14160  158.81108  172.19413  8.43%     -  146s
     0     0  172.08691    0 14309  158.81108  172.08691  8.36%     -  150s
     0     0  172.08580    0 14299  158.81108  172.08580  8.36%     -  150s
H    0     0                     159.3645152  172.08580  7.98%     -  152s
H    0     0                     159.4777024  172.08580  7.91%     -  153s
     0     0  172.07504    0 14334  159.47770  172.07504  7.90%     -  153s
     0     0  172.07409    0 14313  159.47770  172.07409  7.90%     -  153s
     0     0  172.07276    0 14380  159.47770  172.07276  7.90%     -  154s
     0     0  172.07269    0 14397  159.47770  172.07269  7.90%     -  154s
     0     0  171.99390    0 14660  159.47770  171.99390  7.85%     -  157s
     0     0  171.99299    0 14651  159.47770  171.99299  7.85%     -  157s
H    0     0                     160.3110197  171.99299  7.29%     -  160s
H    0     0                     160.5818361  171.99299  7.11%     -  162s
H    0     0                     160.6868159  171.99299  7.04%     -  163s
H    0     0                     160.8294930  171.99299  6.94%     -  165s
H    0     0                     160.9721701  171.99299  6.85%     -  167s
H    0     0                     161.3541851  171.99299  6.59%     -  169s
H    0     0                     162.0313213  171.99299  6.15%     -  171s
H    0     0                     162.2440202  171.99299  6.01%     -  172s
H    0     0                     162.4998845  171.99299  5.84%     -  173s
H    0     0                     163.5808587  171.99299  5.14%     -  175s
     0     0  171.97780    0 14728  163.58086  171.97780  5.13%     -  176s
     0     0  171.97780    0 14729  163.58086  171.97780  5.13%     -  176s
     0     0  171.97507    0 14700  163.58086  171.97507  5.13%     -  176s
     0     0  171.97504    0 14742  163.58086  171.97504  5.13%     -  176s
     0     0  171.91284    0 14855  163.58086  171.91284  5.09%     -  179s
     0     0  171.91275    0 14839  163.58086  171.91275  5.09%     -  180s
H    0     0                     164.0524516  171.91275  4.79%     -  181s
     0     0  171.90837    0 14996  164.05245  171.90837  4.79%     -  181s
     0     0  171.90837    0 14994  164.05245  171.90837  4.79%     -  182s
     0     0  171.90837    0 14995  164.05245  171.90837  4.79%     -  182s
     0     0  171.90837    0 14991  164.05245  171.90837  4.79%     -  182s
     0     0  171.90772    0 15019  164.05245  171.90772  4.79%     -  182s
     0     0  171.90772    0 15029  164.05245  171.90772  4.79%     -  182s
     0     0  171.90723    0 15100  164.05245  171.90723  4.79%     -  182s
     0     0  171.90723    0 15114  164.05245  171.90723  4.79%     -  182s
     0     0  171.83672    0 15044  164.05245  171.83672  4.74%     -  185s
     0     0  171.83672    0 15021  164.05245  171.83672  4.74%     -  185s
     0     0  171.82496    0 15154  164.05245  171.82496  4.74%     -  186s
     0     0  171.82496    0 15144  164.05245  171.82496  4.74%     -  186s
     0     0  171.81914    0 15182  164.05245  171.81914  4.73%     -  186s
     0     0  171.81914    0 15194  164.05245  171.81914  4.73%     -  186s
     0     0  171.81910    0 15213  164.05245  171.81910  4.73%     -  187s
     0     0  171.81072    0 15272  164.05245  171.81072  4.73%     -  189s
     0     0  171.81072    0 15268  164.05245  171.81072  4.73%     -  189s
     0     0  171.76309    0 15265  164.05245  171.76309  4.70%     -  190s
     0     0  171.76309    0 15258  164.05245  171.76309  4.70%     -  190s
     0     0  171.75013    0 15375  164.05245  171.75013  4.69%     -  191s
     0     0  171.74837    0 15487  164.05245  171.74837  4.69%     -  191s
     0     0  171.74834    0 15572  164.05245  171.74834  4.69%     -  191s
     0     0  171.69078    0 15567  164.05245  171.69078  4.66%     -  194s
     0     0  171.69078    0 15566  164.05245  171.69078  4.66%     -  194s
     0     0  171.68002    0 15586  164.05245  171.68002  4.65%     -  195s
     0     0  171.68002    0 15577  164.05245  171.68002  4.65%     -  195s
     0     0  171.67966    0 15668  164.05245  171.67966  4.65%     -  195s
     0     0  171.63366    0 15670  164.05245  171.63366  4.62%     -  198s
     0     0  171.63366    0 15669  164.05245  171.63366  4.62%     -  198s
H    0     0                     164.1951286  171.63366  4.53%     -  199s
H    0     0                     164.3378057  171.63366  4.44%     -  201s
     0     0  171.63336    0 15664  164.33781  171.63336  4.44%     -  201s
     0     0  171.62082    0 15705  164.33781  171.62082  4.43%     -  203s
     0     0  171.62082    0 15714  164.33781  171.62082  4.43%     -  203s
     0     0  171.59782    0 15894  164.33781  171.59782  4.42%     -  204s
     0     0  171.59782    0 15897  164.33781  171.59782  4.42%     -  204s
     0     0  171.59221    0 16156  164.33781  171.59221  4.41%     -  205s
     0     0  171.59197    0 16211  164.33781  171.59197  4.41%     -  205s
     0     0  171.59197    0 16213  164.33781  171.59197  4.41%     -  205s
     0     0  171.56688    0 16095  164.33781  171.56688  4.40%     -  207s
     0     0  171.55578    0 16066  164.33781  171.55578  4.39%     -  209s
     0     0  171.55342    0 16341  164.33781  171.55342  4.39%     -  209s
     0     0  171.55342    0 16340  164.33781  171.55342  4.39%     -  209s
     0     0  171.55260    0 16424  164.33781  171.55260  4.39%     -  210s
     0     0  171.55260    0 16430  164.33781  171.55260  4.39%     -  210s
     0     0  171.55250    0 16505  164.33781  171.55250  4.39%     -  210s
     0     0  171.52672    0 16301  164.33781  171.52672  4.37%     -  213s
     0     0  171.52672    0 16300  164.33781  171.52672  4.37%     -  213s
     0     0  171.52131    0 16503  164.33781  171.52131  4.37%     -  213s
     0     0  171.52131    0 16502  164.33781  171.52131  4.37%     -  213s
     0     0  171.52085    0 16570  164.33781  171.52085  4.37%     -  214s
     0     0  171.52085    0 16570  164.33781  171.52085  4.37%     -  214s
     0     0  171.49548    0 16369  164.33781  171.49548  4.36%     -  216s
     0     0  171.49544    0 16368  164.33781  171.49544  4.36%     -  216s
     0     0  171.49020    0 16541  164.33781  171.49020  4.35%     -  218s
     0     0  171.48879    0 16680  164.33781  171.48879  4.35%     -  218s
     0     0  171.48876    0 16685  164.33781  171.48876  4.35%     -  218s
     0     0  171.47497    0 16584  164.33781  171.47497  4.34%     -  221s
     0     0  171.47497    0 16576  164.33781  171.47497  4.34%     -  221s
     0     0  171.46617    0 16771  164.33781  171.46617  4.34%     -  222s
     0     0  171.46553    0 16893  164.33781  171.46553  4.34%     -  223s
     0     0  171.46553    0 16896  164.33781  171.46553  4.34%     -  223s
     0     0  171.46546    0 16969  164.33781  171.46546  4.34%     -  223s
     0     0  171.44501    0 16674  164.33781  171.44501  4.32%     -  226s
H    0     0                     164.4509930  171.44501  4.25%     -  228s
     0     0  171.43983    0 16925  164.45099  171.43983  4.25%     -  228s
     0     0  171.43870    0 17000  164.45099  171.43870  4.25%     -  228s
     0     0  171.43816    0 17103  164.45099  171.43816  4.25%     -  229s
     0     0  171.42855    0 16954  164.45099  171.42855  4.24%     -  231s
     0     0  171.42580    0 17009  164.45099  171.42580  4.24%     -  232s
     0     0  171.42545    0 16990  164.45099  171.42545  4.24%     -  232s
     0     0  171.42545    0 16991  164.45099  171.42545  4.24%     -  232s
     0     0  171.42109    0 16880  164.45099  171.42109  4.24%     -  235s
     0     0  171.41976    0 17140  164.45099  171.41976  4.24%     -  236s
     0     0  171.41970    0 16977  164.45099  171.41970  4.24%     -  237s
     0     0  171.41160    0 16973  164.45099  171.41160  4.23%     -  240s
     0     0  171.40951    0 17282  164.45099  171.40951  4.23%     -  241s
     0     0  171.40935    0 17282  164.45099  171.40935  4.23%     -  241s
     0     0  171.39814    0 17138  164.45099  171.39814  4.22%     -  244s
     0     0  171.39690    0 17370  164.45099  171.39690  4.22%     -  246s
     0     0  171.39681    0 17388  164.45099  171.39681  4.22%     -  246s
     0     0  171.39149    0 17378  164.45099  171.39149  4.22%     -  248s
     0     0  171.39149    0 17378  164.45099  171.39149  4.22%     -  248s
     0     0  171.39149    0 15286  164.45099  171.39149  4.22%     -  251s
     0     2  171.39070    0 15104  164.45099  171.39070  4.22%     -  263s
     1     3  170.17667    1 11386  164.45099  171.39007  4.22% 37341  266s
     2     2     cutoff    1       164.45099  170.17664  3.48% 43263  274s
     3     1     cutoff    2       164.45099  170.17621  3.48% 48063  283s
     5     3  167.29796    3 7363  164.45099  169.82047  3.27% 33004  287s
     7     5  166.17371    4 7663  164.45099  167.24088  1.70% 25635  292s
H   27    21                     164.5936701  165.39805  0.49%  7129  296s
    81    77  165.30356   65 5453  164.59367  165.39805  0.49%  2401  300s
   138   134  165.08645  112 5388  164.59367  165.39805  0.49%  1419  305s
H  162   156                     164.6231599  165.39805  0.47%  1214  308s
   186   182  165.00918  149 5423  164.62316  165.39805  0.47%  1061  310s
H  216   208                     164.7658369  165.39805  0.38%   917  314s
   227   219  164.98047  182 5362  164.76584  165.39805  0.38%   875  315s
   334   325  164.83913  279 5135  164.76584  165.39805  0.38%   598  320s
   433   401     cutoff   70       164.76584  165.39621  0.38%   471  325s
   533   475  164.83039   33 5315  164.76584  165.39105  0.38%   393  330s
   607   535  164.92208   58 5623  164.76584  165.39105  0.38%   364  335s
   701   609  164.81866   50 5742  164.76584  165.39009  0.38%   328  340s
   797   679  164.87558   19 5959  164.76584  165.38958  0.38%   306  345s
   887   740  164.86183   17 5949  164.76584  165.38942  0.38%   295  350s
   975   805  165.08212   19 5795  164.76584  165.38459  0.38%   286  355s
  1045   854  165.00896   20 5819  164.76584  165.38287  0.37%   289  360s
  1106   899  164.97620   25 5853  164.76584  165.38074  0.37%   288  365s
  1189   942  165.14360   25 5887  164.76584  165.37808  0.37%   288  370s
H 1216   567                     164.8708168  165.37808  0.31%   288  373s
  1233   566  165.15460   28 5859  164.87082  165.37781  0.31%   293  375s
  1269   584  164.93533   23 14310  164.87082  165.37729  0.31%   292  397s
  1271   585  165.03186   20 9481  164.87082  165.37729  0.31%   292  403s
  1272   586  165.08696   14 10726  164.87082  165.37729  0.31%   292  405s
  1275   588  164.92196   14 12604  164.87082  165.37729  0.31%   291  410s
H 1282   563                     164.9840040  165.37729  0.24%   290  417s
  1284   566  165.37729   11 11533  164.98400  165.37729  0.24%   479  422s
  1285   567  165.37729   11 8700  164.98400  165.37729  0.24%   501  426s
  1289   563     cutoff   13       164.98400  165.37729  0.24%   549  432s
  1316   575  165.30702   25 5397  164.98400  165.33959  0.22%   550  435s
  1391   609  165.18943   63 5463  164.98400  165.33959  0.22%   524  440s
  1469   631  165.05276  102 5504  164.98400  165.33959  0.22%   499  445s
  1538   635  165.01380   47 5325  164.98400  165.33721  0.21%   480  450s
  1644   627     cutoff   29       164.98400  165.30734  0.20%   454  455s
  1743   626  165.07087   33 5492  164.98400  165.29972  0.19%   434  460s
  1853   629     cutoff   37       164.98400  165.28788  0.18%   414  465s
  1962   597  165.26693   23 5332  164.98400  165.26693  0.17%   398  470s
  2058   574  165.18283   30 5387  164.98400  165.25878  0.17%   384  475s
  2167   535     cutoff   25       164.98400  165.24968  0.16%   370  480s
  2278   498  165.10396   33 5403  164.98400  165.23878  0.15%   357  485s
  2321   478  165.18586   22 5434  164.98400  165.23338  0.15%   353  490s
  2410   451     cutoff   29       164.98400  165.21983  0.14%   343  495s
  2514   415  165.04832   51 5504  164.98400  165.21083  0.14%   334  500s
  2632   350  165.10667   48 5545  164.98400  165.19591  0.13%   323  505s
  2749   294     cutoff   27       164.98400  165.18562  0.12%   315  510s
  2841   247  165.10167   26 5418  164.98400  165.17201  0.11%   309  515s
  2947   191  165.14791   70 5479  164.98400  165.15899  0.11%   302  520s
  3051   163     cutoff   34       164.98400  165.15266  0.10%   296  525s
  3174   124     cutoff   32       164.98400  165.14127  0.10%   289  530s
  3267   103  165.09139   33 5602  164.98400  165.11496  0.08%   283  535s
  3370    68     cutoff   33       164.98400  165.09489  0.07%   279  540s

Cutting planes:
  Gomory: 36
  Cover: 10
  Clique: 350
  MIR: 51
  Zero half: 1800
  Relax-and-lift: 1

Explored 3485 nodes (1388863 simplex iterations) in 547.38 seconds (720.33 work units)
Thread count was 1 (of 32 available processors)

Solution count 10: 164.984 164.871 164.766 ... 163.581

Optimal solution found (tolerance 1.00e-04)
Best objective 1.649840040389e+02, best bound 1.649852273177e+02, gap 0.0007%

User-callback calls 36835, time in user-callback 56.23 sec
